Route #1: 129 145 163 57 12 104 13 77 111 122 1 88 37 84 114 136 2
Route #2: 109 16 29 28 32 72 10 51 146 11 39 133 70 141 24 31 40
Route #3: 41 74 106 90 94 166 33 20 91 161 49 64 107 147 117 43 66 8 148
Route #4: 35 26 165 78 138 125 115 97 116 153 75 160 4 149 131 151 38 55
Route #5: 162 62 128 85 156 14 123 118 47 126 127 155 58 61 56 69 83
Route #6: 71 113 23 139 36 110 34 164 81 45 98 135 150 65 101 105 80
Route #7: 60 132 154 21 158 142 82 120 53 112 59 95 19 50 100 102 108 27 54
Route #8: 44 79 121 134 119 140 46 30 92 3 130 143 76 18 144 87 42
Route #9: 137 22 73 25 93 52 17 96 159 15 48 68 9 157 7 6 89 67
Route #10: 99 63 124 152 103 86 5
Cost 22504.041253815645